10
1 0 98
2 0 97
2 1 95
3 0 75
3 1 105
3 2 73
4 0 13
4 1 37
4 2 105
4 3 103
5 0 72
5 1 87
5 2 64
5 3 39
5 4 8
6 0 119
6 1 3
6 2 57
6 3 10
6 4 68
6 5 109
7 0 7
7 1 49
7 2 51
7 3 80
7 4 4
7 5 66
7 6 71
8 0 37
8 1 8
8 2 54
8 3 76
8 4 53
8 5 100
8 6 55
8 7 22
9 0 81
9 1 96
9 2 109
9 3 85
9 4 51
9 5 43
9 6 24
9 7 5
9 8 44
